W=7;
H=6;

MAX_TIME=16;
MAX_TRACKS=13;

TARGET=(6,7);

TRAINS=[(1,4,DOWN),(3,6,LEFT),(3,2,RIGHT),(5,4,TOP)];
DECOYS=[];

INIT_POS=[
(1,4,STRAIGHT_TD),
(3,2,STRAIGHT_RL),
(3,6,STRAIGHT_RL),
(5,4,STRAIGHT_TD),
(6,4,CORNER_TR),
(6,5,STRAIGHT_RL),
(6,6,STRAIGHT_RL),
(6,7,STRAIGHT_RL),
];
TUNNEL_PAIRS=[];

GATES=[];
ACTIVATIONS=[];

DSWITCHES=[];
STATIONS=[];

SEMAPHORE_SUPPLY=0;
